v1 = 5;
v2 = 5;
vertexWeights = [-45, -45, -45, -45, -45, -45, -90, -90, -90, -90, -90, -45, -90, -90, -46.15463140357639, -90, -90, -45, -90, -26.443335644354704, -90, -90, -90, -45, -90, -90, -28.64000698323937, -90, -90, -45, -90, -48.5025772511111, -90, -90, -90];
edgeWeights = [| 0, 0, -7.5, -7.5, -7.5, 0, 0, 0, -7.5, -7.5, -7.5, 0, 0, 0, -7.5, -7.5, -7.5, 0, 0, 0, -7.5, -7.5, -7.5, 0, 0, 0, -7.5, -7.5, -7.5, 0, 0, 0, -7.5, -7.5, -7.5
| 0, 0, -7.5, -7.5, 0, 0, 0, 0, -7.5, -7.5, 0, 0, 0, 0, -7.5, -7.5, 0, 0, 0, 0, -7.5, -7.5, 0, 0, 0, 0, -7.5, -7.5, 0, 0, 0, 0, -7.5, -7.5, 0
| -7.5, -7.5, 0, 0, 0, 0, -7.5, -7.5, 0, 0, 0, 0, -7.5, -7.5, 0, 0, 0, 0, -7.5, -7.5, 0, 0, 0, 0, -7.5, -7.5, 0, 0, 0, 0, -7.5, -7.5, 0, 0, 0
| -7.5, -7.5, 0, 0, 0, 0, -7.5, -7.5, 0, 0, 0, 0, -7.5, -7.5, 0, 0, 0, 0, -7.5, -7.5, 0, 0, 0, 0, -7.5, -7.5, 0, 0, 0, 0, -7.5, -7.5, 0, 0, 0
| -7.5, 0, 0, 0, 0, 0, -7.5, 0, 0, 0, 0, 0, -7.5, 0, 0, 0, 0, 0, -7.5, 0, 0, 0, 0, 0, -7.5, 0, 0, 0, 0, 0, -7.5, 0, 0, 0, 0
| 0, 0, 0, 0, 0, 0, 0, 0, 0, 0, 0, 0, 0, 0, 0, 0, 0, 0, 0, 0, 0, 0, 0, 0, 0, 0, 0, 0, 0, 0, 0, 0, 0, 0, 0
| 0, -0.0, -7.5, -7.5, -7.5, 0, 0, 0, 0, 0, 0, -0.0, 0, 0, -7.5, -7.5, -7.5, -0.0, 0, 0, -7.5, -7.5, -7.5, -0.0, 0, 0, -7.5, -7.5, -7.5, -0.0, 0, 0, -7.5, -7.5, -7.5
| -0.0, 0, -7.5, -7.5, -0.0, 0, 0, 0, 0, 0, 0, -0.0, 0, 0, -7.5, -7.5, 0, -0.0, 0, 0, -7.5, -7.5, 0, -0.0, 0, 0, -7.5, -7.5, 0, -0.0, 0, 0, -7.5, -7.5, 0
| -7.5, -7.5, 0, -0.0, -0.0, 0, 0, 0, 0, 0, 0, -0.0, -7.5, -7.5, 0, 0, 0, -0.0, -7.5, -7.5, 0, 0, 0, -0.0, -7.5, -7.5, 0, 0, 0, -0.0, -7.5, -7.5, 0, 0, 0
| -7.5, -7.5, -0.0, 0, -0.0, 0, 0, 0, 0, 0, 0, -0.0, -7.5, -7.5, 0, 0, 0, -0.0, -7.5, -7.5, 0, 0, 0, -0.0, -7.5, -7.5, 0, 0, 0, -0.0, -7.5, -7.5, 0, 0, 0
| -7.5, -0.0, -0.0, -0.0, 0, 0, 0, 0, 0, 0, 0, -0.0, -7.5, 0, 0, 0, 0, -0.0, -7.5, 0, 0, 0, 0, -0.0, -7.5, 0, 0, 0, 0, -0.0, -7.5, 0, 0, 0, 0
| 0, 0, 0, 0, 0, 0, 0, 0, 0, 0, 0, 0, 0, 0, 0, 0, 0, 0, 0, 0, 0, 0, 0, 0, 0, 0, 0, 0, 0, -15.0, -15.0, -15.0, -15.0, -15.0, -15.0
| 0, -0.0, -7.5, -7.5, -7.5, -0.0, 0, 0, -7.5, -7.5, -7.5, 0, 0, 0, 0, 0, 0, -0.0, 0, 0, -7.5, -7.5, -7.5, -0.0, 0, 0, -7.5, -7.5, -7.5, -15.0, 0, -0.0, -7.5, -7.5, -7.5
| -0.0, 0, -7.5, -7.5, -0.0, -0.0, 0, 0, -7.5, -7.5, 0, 0, 0, 0, 0, 0, 0, -0.0, 0, 0, -7.5, -7.5, 0, -0.0, 0, 0, -7.5, -7.5, 0, -15.0, -0.0, 0, -7.5, -7.5, -15.0
| -7.5, -7.5, 0, -0.0, -0.0, -0.0, -7.5, -7.5, 0, 0, 0, 0, 0, 0, 0, 0, 0, -0.0, -7.5, -7.5, 0, 0, 0, -0.0, -7.5, -7.5, 0, 0, 0, -15.0, -7.5, -7.5, 0, -0.0, -15.0
| -7.5, -7.5, -0.0, 0, -0.0, -0.0, -7.5, -7.5, 0, 0, 0, 0, 0, 0, 0, 0, 0, -0.0, -7.5, -7.5, 0, 0, 0, -0.0, -7.5, -7.5, 0, 0, 0, -15.0, -7.5, -7.5, -0.0, 0, -15.0
| -7.5, -0.0, -0.0, -0.0, 0, -0.0, -7.5, 0, 0, 0, 0, 0, 0, 0, 0, 0, 0, -0.0, -7.5, 0, 0, 0, 0, -0.0, -7.5, 0, 0, 0, 0, -15.0, -7.5, -0.0, -0.0, -0.0, 0
| 0, 0, 0, 0, 0, 0, 0, 0, 0, 0, 0, 0, 0, 0, 0, 0, 0, 0, 0, 0, 0, 0, 0, -15.0, -15.0, -15.0, -15.0, -15.0, -15.0, 0, 0, 0, 0, 0, 0
| 0, -0.0, -7.5, -7.5, -7.5, -0.0, 0, 0, -7.5, -7.5, -7.5, -0.0, 0, 0, -7.5, -7.5, -7.5, 0, 0, 0, 0, 0, 0, -15.0, 0, -0.0, -7.5, -7.5, -7.5, -0.0, 0, 0, -7.5, -7.5, -7.5
| -0.0, 0, -7.5, -7.5, -0.0, -0.0, 0, 0, -7.5, -7.5, 0, -0.0, 0, 0, -7.5, -7.5, 0, 0, 0, 0, 0, 0, 0, -15.0, -0.0, 0, -7.5, -7.5, -0.0, -0.0, 0, 0, -7.5, -7.5, 0
| -7.5, -7.5, 0, -0.0, -0.0, -0.0, -7.5, -7.5, 0, 0, 0, -0.0, -7.5, -7.5, 0, 0, 0, 0, 0, 0, 0, 0, 0, -15.0, -7.5, -7.5, 0, -15.0, -0.0, -0.0, -7.5, -7.5, 0, 0, 0
| -7.5, -7.5, -0.0, 0, -0.0, -0.0, -7.5, -7.5, 0, 0, 0, -0.0, -7.5, -7.5, 0, 0, 0, 0, 0, 0, 0, 0, 0, -15.0, -7.5, -7.5, -0.0, 0, -0.0, -0.0, -7.5, -7.5, 0, 0, 0
| -7.5, -0.0, -0.0, -0.0, 0, -0.0, -7.5, 0, 0, 0, 0, -0.0, -7.5, 0, 0, 0, 0, 0, 0, 0, 0, 0, 0, -15.0, -7.5, -0.0, -0.0, -15.0, 0, -0.0, -7.5, 0, 0, 0, 0
| 0, 0, 0, 0, 0, 0, 0, 0, 0, 0, 0, 0, 0, 0, 0, 0, 0, -15.0, -15.0, -15.0, -15.0, -15.0, -15.0, 0, 0, 0, 0, 0, 0, 0, 0, 0, 0, 0, 0
| 0, -0.0, -7.5, -7.5, -7.5, -0.0, 0, 0, -7.5, -7.5, -7.5, -0.0, 0, 0, -7.5, -7.5, -7.5, -15.0, 0, -0.0, -7.5, -7.5, -7.5, 0, 0, 0, 0, 0, 0, -0.0, 0, 0, -7.5, -7.5, -7.5
| -0.0, 0, -7.5, -7.5, -0.0, -0.0, 0, 0, -7.5, -7.5, 0, -0.0, 0, 0, -7.5, -7.5, 0, -15.0, -0.0, 0, -7.5, -7.5, -0.0, 0, 0, 0, 0, 0, 0, -0.0, 0, 0, -7.5, -7.5, 0
| -7.5, -7.5, 0, -0.0, -0.0, -0.0, -7.5, -7.5, 0, 0, 0, -0.0, -7.5, -7.5, 0, 0, 0, -15.0, -7.5, -7.5, 0, -0.0, -0.0, 0, 0, 0, 0, 0, 0, -0.0, -7.5, -7.5, 0, 0, 0
| -7.5, -7.5, -0.0, 0, -0.0, -0.0, -7.5, -7.5, 0, 0, 0, -0.0, -7.5, -7.5, 0, 0, 0, -15.0, -7.5, -7.5, -15.0, 0, -0.0, 0, 0, 0, 0, 0, 0, -0.0, -7.5, -7.5, 0, 0, 0
| -7.5, -0.0, -0.0, -0.0, 0, -0.0, -7.5, 0, 0, 0, 0, -0.0, -7.5, 0, 0, 0, 0, -15.0, -7.5, -0.0, -15.0, -0.0, 0, 0, 0, 0, 0, 0, 0, -0.0, -7.5, 0, 0, 0, 0
| 0, 0, 0, 0, 0, 0, 0, 0, 0, 0, 0, -15.0, -15.0, -15.0, -15.0, -15.0, -15.0, 0, 0, 0, 0, 0, 0, 0, 0, 0, 0, 0, 0, 0, 0, 0, 0, 0, 0
| 0, -0.0, -7.5, -7.5, -7.5, -0.0, 0, 0, -7.5, -7.5, -7.5, -15.0, 0, -15.0, -7.5, -7.5, -7.5, -0.0, 0, 0, -7.5, -7.5, -7.5, -0.0, 0, 0, -7.5, -7.5, -7.5, 0, 0, 0, 0, 0, 0
| -0.0, 0, -7.5, -7.5, -0.0, -0.0, 0, 0, -7.5, -7.5, 0, -15.0, -0.0, 0, -7.5, -7.5, -0.0, -0.0, 0, 0, -7.5, -7.5, 0, -0.0, 0, 0, -7.5, -7.5, 0, 0, 0, 0, 0, 0, 0
| -7.5, -7.5, 0, -0.0, -0.0, -0.0, -7.5, -7.5, 0, 0, 0, -15.0, -7.5, -7.5, 0, -0.0, -0.0, -0.0, -7.5, -7.5, 0, 0, 0, -0.0, -7.5, -7.5, 0, 0, 0, 0, 0, 0, 0, 0, 0
| -7.5, -7.5, -0.0, 0, -0.0, -0.0, -7.5, -7.5, 0, 0, 0, -15.0, -7.5, -7.5, -0.0, 0, -0.0, -0.0, -7.5, -7.5, 0, 0, 0, -0.0, -7.5, -7.5, 0, 0, 0, 0, 0, 0, 0, 0, 0
| -7.5, -0.0, -0.0, -0.0, 0, -0.0, -7.5, 0, 0, 0, 0, -15.0, -7.5, -15.0, -0.0, -0.0, 0, -0.0, -7.5, 0, 0, 0, 0, -0.0, -7.5, 0, 0, 0, 0, 0, 0, 0, 0, 0, 0 |];
adjacent = [| 0, 1, 1, 1, 1, 1, 0, 1, 1, 1, 1, 1, 0, 1, 1, 1, 1, 1, 0, 1, 1, 1, 1, 1, 0, 1, 1, 1, 1, 1, 0, 1, 1, 1, 1
| 1, 0, 1, 1, 1, 1, 1, 0, 1, 1, 1, 1, 1, 0, 1, 1, 1, 1, 1, 0, 1, 1, 1, 1, 1, 0, 1, 1, 1, 1, 1, 0, 1, 1, 1
| 1, 1, 0, 1, 1, 1, 1, 1, 0, 1, 1, 1, 1, 1, 0, 1, 1, 1, 1, 1, 0, 1, 1, 1, 1, 1, 0, 1, 1, 1, 1, 1, 0, 1, 1
| 1, 1, 1, 0, 1, 1, 1, 1, 1, 0, 1, 1, 1, 1, 1, 0, 1, 1, 1, 1, 1, 0, 1, 1, 1, 1, 1, 0, 1, 1, 1, 1, 1, 0, 1
| 1, 1, 1, 1, 0, 1, 1, 1, 1, 1, 0, 1, 1, 1, 1, 1, 0, 1, 1, 1, 1, 1, 0, 1, 1, 1, 1, 1, 0, 1, 1, 1, 1, 1, 0
| 1, 1, 1, 1, 1, 0, 0, 0, 0, 0, 0, 1, 1, 1, 1, 1, 1, 1, 1, 1, 1, 1, 1, 1, 1, 1, 1, 1, 1, 1, 1, 1, 1, 1, 1
| 0, 1, 1, 1, 1, 0, 0, 0, 0, 0, 0, 1, 0, 1, 1, 1, 1, 1, 0, 1, 1, 1, 1, 1, 0, 1, 1, 1, 1, 1, 0, 1, 1, 1, 1
| 1, 0, 1, 1, 1, 0, 0, 0, 0, 0, 0, 1, 1, 0, 1, 1, 1, 1, 1, 0, 1, 1, 1, 1, 1, 0, 1, 1, 1, 1, 1, 0, 1, 1, 1
| 1, 1, 0, 1, 1, 0, 0, 0, 0, 0, 0, 1, 1, 1, 0, 1, 1, 1, 1, 1, 0, 1, 1, 1, 1, 1, 0, 1, 1, 1, 1, 1, 0, 1, 1
| 1, 1, 1, 0, 1, 0, 0, 0, 0, 0, 0, 1, 1, 1, 1, 0, 1, 1, 1, 1, 1, 0, 1, 1, 1, 1, 1, 0, 1, 1, 1, 1, 1, 0, 1
| 1, 1, 1, 1, 0, 0, 0, 0, 0, 0, 0, 1, 1, 1, 1, 1, 0, 1, 1, 1, 1, 1, 0, 1, 1, 1, 1, 1, 0, 1, 1, 1, 1, 1, 0
| 1, 1, 1, 1, 1, 1, 1, 1, 1, 1, 1, 0, 0, 0, 0, 0, 0, 1, 1, 1, 1, 1, 1, 1, 1, 1, 1, 1, 1, 1, 1, 1, 1, 1, 1
| 0, 1, 1, 1, 1, 1, 0, 1, 1, 1, 1, 0, 0, 0, 0, 0, 0, 1, 0, 1, 1, 1, 1, 1, 0, 1, 1, 1, 1, 1, 0, 1, 1, 1, 1
| 1, 0, 1, 1, 1, 1, 1, 0, 1, 1, 1, 0, 0, 0, 0, 0, 0, 1, 1, 0, 1, 1, 1, 1, 1, 0, 1, 1, 1, 1, 1, 0, 1, 1, 1
| 1, 1, 0, 1, 1, 1, 1, 1, 0, 1, 1, 0, 0, 0, 0, 0, 0, 1, 1, 1, 0, 1, 1, 1, 1, 1, 0, 1, 1, 1, 1, 1, 0, 1, 1
| 1, 1, 1, 0, 1, 1, 1, 1, 1, 0, 1, 0, 0, 0, 0, 0, 0, 1, 1, 1, 1, 0, 1, 1, 1, 1, 1, 0, 1, 1, 1, 1, 1, 0, 1
| 1, 1, 1, 1, 0, 1, 1, 1, 1, 1, 0, 0, 0, 0, 0, 0, 0, 1, 1, 1, 1, 1, 0, 1, 1, 1, 1, 1, 0, 1, 1, 1, 1, 1, 0
| 1, 1, 1, 1, 1, 1, 1, 1, 1, 1, 1, 1, 1, 1, 1, 1, 1, 0, 0, 0, 0, 0, 0, 1, 1, 1, 1, 1, 1, 1, 1, 1, 1, 1, 1
| 0, 1, 1, 1, 1, 1, 0, 1, 1, 1, 1, 1, 0, 1, 1, 1, 1, 0, 0, 0, 0, 0, 0, 1, 0, 1, 1, 1, 1, 1, 0, 1, 1, 1, 1
| 1, 0, 1, 1, 1, 1, 1, 0, 1, 1, 1, 1, 1, 0, 1, 1, 1, 0, 0, 0, 0, 0, 0, 1, 1, 0, 1, 1, 1, 1, 1, 0, 1, 1, 1
| 1, 1, 0, 1, 1, 1, 1, 1, 0, 1, 1, 1, 1, 1, 0, 1, 1, 0, 0, 0, 0, 0, 0, 1, 1, 1, 0, 1, 1, 1, 1, 1, 0, 1, 1
| 1, 1, 1, 0, 1, 1, 1, 1, 1, 0, 1, 1, 1, 1, 1, 0, 1, 0, 0, 0, 0, 0, 0, 1, 1, 1, 1, 0, 1, 1, 1, 1, 1, 0, 1
| 1, 1, 1, 1, 0, 1, 1, 1, 1, 1, 0, 1, 1, 1, 1, 1, 0, 0, 0, 0, 0, 0, 0, 1, 1, 1, 1, 1, 0, 1, 1, 1, 1, 1, 0
| 1, 1, 1, 1, 1, 1, 1, 1, 1, 1, 1, 1, 1, 1, 1, 1, 1, 1, 1, 1, 1, 1, 1, 0, 0, 0, 0, 0, 0, 1, 1, 1, 1, 1, 1
| 0, 1, 1, 1, 1, 1, 0, 1, 1, 1, 1, 1, 0, 1, 1, 1, 1, 1, 0, 1, 1, 1, 1, 0, 0, 0, 0, 0, 0, 1, 0, 1, 1, 1, 1
| 1, 0, 1, 1, 1, 1, 1, 0, 1, 1, 1, 1, 1, 0, 1, 1, 1, 1, 1, 0, 1, 1, 1, 0, 0, 0, 0, 0, 0, 1, 1, 0, 1, 1, 1
| 1, 1, 0, 1, 1, 1, 1, 1, 0, 1, 1, 1, 1, 1, 0, 1, 1, 1, 1, 1, 0, 1, 1, 0, 0, 0, 0, 0, 0, 1, 1, 1, 0, 1, 1
| 1, 1, 1, 0, 1, 1, 1, 1, 1, 0, 1, 1, 1, 1, 1, 0, 1, 1, 1, 1, 1, 0, 1, 0, 0, 0, 0, 0, 0, 1, 1, 1, 1, 0, 1
| 1, 1, 1, 1, 0, 1, 1, 1, 1, 1, 0, 1, 1, 1, 1, 1, 0, 1, 1, 1, 1, 1, 0, 0, 0, 0, 0, 0, 0, 1, 1, 1, 1, 1, 0
| 1, 1, 1, 1, 1, 1, 1, 1, 1, 1, 1, 1, 1, 1, 1, 1, 1, 1, 1, 1, 1, 1, 1, 1, 1, 1, 1, 1, 1, 0, 0, 0, 0, 0, 0
| 0, 1, 1, 1, 1, 1, 0, 1, 1, 1, 1, 1, 0, 1, 1, 1, 1, 1, 0, 1, 1, 1, 1, 1, 0, 1, 1, 1, 1, 0, 0, 0, 0, 0, 0
| 1, 0, 1, 1, 1, 1, 1, 0, 1, 1, 1, 1, 1, 0, 1, 1, 1, 1, 1, 0, 1, 1, 1, 1, 1, 0, 1, 1, 1, 0, 0, 0, 0, 0, 0
| 1, 1, 0, 1, 1, 1, 1, 1, 0, 1, 1, 1, 1, 1, 0, 1, 1, 1, 1, 1, 0, 1, 1, 1, 1, 1, 0, 1, 1, 0, 0, 0, 0, 0, 0
| 1, 1, 1, 0, 1, 1, 1, 1, 1, 0, 1, 1, 1, 1, 1, 0, 1, 1, 1, 1, 1, 0, 1, 1, 1, 1, 1, 0, 1, 0, 0, 0, 0, 0, 0
| 1, 1, 1, 1, 0, 1, 1, 1, 1, 1, 0, 1, 1, 1, 1, 1, 0, 1, 1, 1, 1, 1, 0, 1, 1, 1, 1, 1, 0, 0, 0, 0, 0, 0, 0 |];
